
Gurobi 9.5.1 (linux64) logging started Sat Jul  2 21:24:37 2022

Set parameter LogFile to value "../results/logs/log_ca-citeseer_3_250_2022_07_02_19_03.log"
Gurobi Optimizer version 9.5.1 build v9.5.1rc2 (linux64)
Thread count: 8 physical cores, 8 logical processors, using up to 8 threads
Optimize a model with 38997 rows, 454640 columns and 229155 nonzeros
Model fingerprint: 0xdf6b3318
Variable types: 0 continuous, 454640 integer (454640 binary)
Coefficient statistics:
  Matrix range     [1e+00, 3e+00]
  Objective range  [1e+00, 1e+00]
  Bounds range     [1e+00, 1e+00]
  RHS range        [1e+00, 2e+02]
Found heuristic solution: objective 152966.00000
Presolve removed 12502 rows and 435582 columns
Presolve time: 0.79s
Presolved: 26495 rows, 19058 columns, 92432 nonzeros
Found heuristic solution: objective 153220.00000
Variable types: 0 continuous, 19058 integer (18391 binary)

Root relaxation: objective 1.544389e+05, 6260 iterations, 0.13 seconds (0.21 work units)

    Nodes    |    Current Node    |     Objective Bounds      |     Work
 Expl Unexpl |  Obj  Depth IntInf | Incumbent    BestBd   Gap | It/Node Time

     0     0 154438.913    0 1909 153220.000 154438.913  0.80%     -    2s
H    0     0                    153513.00000 154438.913  0.60%     -    2s
H    0     0                    153514.00000 154438.913  0.60%     -    2s
H    0     0                    153564.00000 154438.913  0.57%     -    2s
H    0     0                    153565.00000 153826.026  0.17%     -    2s
H    0     0                    153570.00000 153826.026  0.17%     -    2s
     0     0 153826.026    0  469 153570.000 153826.026  0.17%     -    2s
H    0     0                    153626.00000 153826.026  0.13%     -    3s
H    0     0                    153627.00000 153826.026  0.13%     -    3s
H    0     0                    153723.00000 153826.026  0.07%     -    3s
     0     0 153818.154    0  454 153723.000 153818.154  0.06%     -    3s
     0     0 153817.654    0  454 153723.000 153817.654  0.06%     -    3s
     0     0 153784.124    0  145 153723.000 153784.124  0.04%     -    3s
H    0     0                    153736.00000 153782.436  0.03%     -    3s
     0     0 153782.436    0  159 153736.000 153782.436  0.03%     -    4s
     0     0 153782.130    0  146 153736.000 153782.130  0.03%     -    4s
     0     0 153782.066    0  139 153736.000 153782.066  0.03%     -    4s
H    0     0                    153740.00000 153782.066  0.03%     -    4s
     0     0 153771.278    0   76 153740.000 153771.278  0.02%     -    4s
H    0     0                    153741.00000 153771.278  0.02%     -    4s
H    0     0                    153757.00000 153771.278  0.01%     -    4s
     0     0 153769.739    0   60 153757.000 153769.739  0.01%     -    4s
     0     0 153769.467    0   42 153757.000 153769.467  0.01%     -    4s
     0     0 153769.000    0   49 153757.000 153769.000  0.01%     -    5s
H    0     0                    153758.00000 153769.000  0.01%     -    5s
     0     0 153768.988    0   62 153758.000 153768.988  0.01%     -    5s
     0     0 153768.278    0   38 153758.000 153768.278  0.01%     -    5s
H    0     0                    153764.00000 153768.278  0.00%     -    5s
     0     0 153768.106    0   43 153764.000 153768.106  0.00%     -    5s
     0     0 153767.379    0   51 153764.000 153767.379  0.00%     -    5s
     0     0 153767.172    0   40 153764.000 153767.172  0.00%     -    5s
     0     0 153767.135    0   47 153764.000 153767.135  0.00%     -    6s
     0     0 153766.467    0   46 153764.000 153766.467  0.00%     -    6s
     0     0 153766.083    0   18 153764.000 153766.083  0.00%     -    6s
     0     0 153766.083    0   16 153764.000 153766.083  0.00%     -    6s
     0     0 153766.083    0   16 153764.000 153766.083  0.00%     -    6s
H    0     0                    153765.00000 153765.917  0.00%     -    6s
     0     0 153765.917    0   16 153765.000 153765.917  0.00%     -    6s

Cutting planes:
  Gomory: 147
  Cover: 81
  Clique: 1
  MIR: 629
  StrongCG: 10
  GUB cover: 1385
  Zero half: 159
  RLT: 57

Explored 1 nodes (11022 simplex iterations) in 6.85 seconds (5.25 work units)
Thread count was 8 (of 8 available processors)

Solution count 10: 153765 153764 153758 ... 153626

Optimal solution found (tolerance 0.00e+00)
Best objective 1.537650000000e+05, best bound 1.537650000000e+05, gap 0.0000%
